
  32    4
  10   10   10   10

   0   0   0   0   0   5 2 4 7 8 25 
   9  10  10  10  10   6 22 21 15 14 6 3 
   9  10  10  10  10   8 24 23 20 19 18 13 10 5 
   6  10  10  10  10   4 21 14 13 6 
   5  10  10  10  10   4 31 12 11 9 
  10  10  10  10  10   6 30 27 19 18 17 11 
   5  10  10  10  10   5 30 29 20 16 10 
   9  10  10  10  10   4 29 22 17 15 
  10  10  10  10  10   4 30 27 26 17 
   1  10  10  10  10   3 27 26 17 
  10  10  10  10  10   3 29 28 26 
   9  10  10  10  10   3 28 27 26 
  10  10  10  10  10   2 28 26 
   7  10  10  10  10   2 30 27 
   4  10  10  10  10   2 27 26 
  10  10  10  10  10   2 27 26 
   1  10  10  10  10   1 28 
   7  10  10  10  10   1 29 
   3  10  10  10  10   1 26 
   4  10  10  10  10   1 28 
   5  10  10  10  10   1 27 
   2  10  10  10  10   1 27 
   1  10  10  10  10   1 29 
   5  10  10  10  10   1 26 
   7  10  10  10  10   1 26 
   6  10  10  10  10   1 32
   4  10  10  10  10   1 32
   8  10  10  10  10   1 32
   9  10  10  10  10   1 32
   5  10  10  10  10   1 32
   6  10  10  10  10   1 32
   0   0   0   0   0   0 
